NAME : A-n33-k5.424541.tour
COMMENT : Length = 424541
COMMENT : Found by LKH [Keld Helsgaun] Sun Dec 17 18:34:23 2017
TYPE : TOUR
DIMENSION : 37
TOUR_SECTION
1
3
21
33
14
9
8
27
6
37
23
24
29
19
12
32
30
35
5
13
11
31
26
28
34
25
7
20
15
22
2
36
16
17
4
10
18
-1
EOF
